(set-info :smt-lib-version 2.6)
(set-logic QF_SLIA)
(set-info :source |
Generated by: Dmitry Blotsky1, Federico Mora, Murphy Berzish, Yunhui Zheng, Ifaz Kabir, Vijay Ganesh, Zhengyang Lu
Generated on: 2018-01-24
Generator: StringFuzz
Application: Evaluate string solvers
Target solver: Z3str3, CVC4, Z3str2, Norn
Publications: Blotsky, D., Mora, F., Berzish, M., Zheng, Y., Kabir, I., & Ganesh, V. (2018). Stringfuzz: A fuzzer for string solvers. In CAV 2018.
Description: new instance generated by StringFuzz, a modular string and regex fuzzer
|)
(set-info :license "https://creativecommons.org/licenses/by/4.0/")
(set-info :category "random")
(set-info :status unknown)

(declare-fun var0 () String)
(assert (str.in_re var0 (re.++ (re.+ (re.union (str.to_re "000") (str.to_re "1"))) (re.++ (re.* (re.union (str.to_re "222") (str.to_re "33"))) (re.++ (re.union (re.* (str.to_re "444")) (re.+ (str.to_re "55"))) (re.++ (re.+ (re.+ (str.to_re "66"))) (re.++ (re.union (re.+ (str.to_re "77")) (re.+ (str.to_re "888"))) (re.++ (re.+ (re.union (str.to_re "999") (str.to_re "aa"))) (re.++ (re.+ (re.+ (str.to_re "bbb"))) (re.++ (re.+ (re.+ (str.to_re "cc"))) (re.++ (re.union (re.* (str.to_re "d")) (re.union (str.to_re "ee") (str.to_re "fff"))) (re.++ (re.* (re.+ (str.to_re "ggg"))) (re.++ (re.* (re.+ (str.to_re "h"))) (re.++ (re.union (re.union (str.to_re "iii") (str.to_re "jjj")) (re.* (str.to_re "k"))) (re.++ (re.+ (re.* (str.to_re "ll"))) (re.++ (re.* (re.union (str.to_re "m") (str.to_re "nnn"))) (re.++ (re.* (re.union (str.to_re "oo") (str.to_re "pp"))) (re.++ (re.union (re.union (str.to_re "qq") (str.to_re "r")) (re.union (str.to_re "s") (str.to_re "t"))) (re.++ (re.+ (re.union (str.to_re "uuu") (str.to_re "vv"))) (re.++ (re.union (re.+ (str.to_re "w")) (re.* (str.to_re "x"))) (re.++ (re.* (re.+ (str.to_re "y"))) (re.++ (re.* (re.union (str.to_re "zz") (str.to_re "A"))) (re.++ (re.* (re.union (str.to_re "BBB") (str.to_re "CCC"))) (re.++ (re.union (re.* (str.to_re "DD")) (re.+ (str.to_re "EE"))) (re.++ (re.+ (re.* (str.to_re "FFF"))) (re.++ (re.union (re.+ (str.to_re "G")) (re.union (str.to_re "HHH") (str.to_re "II"))) (re.++ (re.* (re.+ (str.to_re "JJJ"))) (re.++ (re.* (re.* (str.to_re "KKK"))) (re.++ (re.+ (re.+ (str.to_re "LL"))) (re.++ (re.+ (re.+ (str.to_re "MM"))) (re.++ (re.union (re.+ (str.to_re "N")) (re.union (str.to_re "OO") (str.to_re "PPP"))) (re.++ (re.+ (re.union (str.to_re "QQ") (str.to_re "RRR"))) (re.++ (re.* (re.+ (str.to_re "S"))) (re.++ (re.* (re.* (str.to_re "TTT"))) (re.++ (re.+ (re.+ (str.to_re "UUU"))) (re.++ (re.+ (re.+ (str.to_re "VVV"))) (re.+ (re.union (str.to_re "WW") (str.to_re "XXX")))))))))))))))))))))))))))))))))))))))
(check-sat)
(exit)
